1609759800
1609776000
1609846200
1609861500
1609932600
1609948800
1610105400
1610120700
1610019000
1610033400
1610364600
1610380800
1610451000
1610465400
1610551800
1610537400
1610623800
1610638800
1610710200
1610724600
1610969400
1610984700
1611055800
1611070200
1611142200
1611156960
1611228600
1611244500
1611315000
1611329400
1611574200
1611589500
1611660600
1611675900
1611747000
1611761400
1611833400
1611847800
1611919800
1611935100
